c NeuroCodeBench 2.0 CNF formula with verdict Unsat
p cnf 13 62
-1 -3 4 8 11 -10 12 0
-1 3 -7 11 12 8 -13 6 0
-1 3 -7 11 -12 -5 0
-1 -3 -4 7 -10 -9 12 0
-1 -3 4 8 11 10 0
-1 3 -7 11 12 -8 0
1 -10 13 -2 0
1 10 -6 2 -9 5 -12 0
1 -10 -13 3 2 -4 0
-1 -3 -4 7 -10 9 8 5 0
-1 -3 4 8 -11 0
1 10 6 -2 9 4 0
1 10 -6 2 -9 5 12 0
-1 -3 -4 7 10 -12 0
1 -10 -13 -3 -8 5 12 0
1 10 -6 2 9 -4 0
-1 -3 4 -8 5 13 -6 0
-1 3 7 5 12 0
1 10 6 2 12 -5 0
1 -10 13 2 9 0
-1 -3 -4 7 10 12 0
-1 3 -7 11 12 8 -13 -6 -4 0
-1 -3 -4 7 -10 9 8 -5 0
-1 -3 4 -8 5 13 6 0
-1 -3 -4 7 -10 9 -8 0
-1 -3 4 -8 5 -13 -10 0
1 10 6 2 12 5 -11 0
-1 3 -7 -11 -4 -10 -12 0
1 -10 -13 -3 -8 5 -12 -7 0
-1 3 -7 -11 -4 10 0
1 -10 -13 3 2 4 0
-1 3 -7 11 12 8 13 0
1 -10 -13 3 -2 -5 -12 0
-1 3 -7 -11 4 5 0
-1 3 7 -5 0
1 10 -6 -2 0
-1 -3 4 -8 -5 0
-1 3 -7 -11 -4 -10 12 0
1 -10 13 2 -9 -12 0
1 -10 -13 3 -2 -5 12 0
1 10 -6 2 9 4 0
1 -10 -13 -3 8 0
-1 3 -7 11 12 8 -13 -6 4 0
-1 3 -7 11 -12 5 0
-1 -3 -4 -7 -12 0
1 -10 13 2 -9 12 0
-1 3 -7 -11 4 -5 0
1 10 6 -2 9 -4 0
1 10 6 -2 -9 0
1 10 -6 2 -9 -5 0
-1 -3 4 -8 5 -13 10 0
-1 3 7 5 -12 -9 0
1 -10 -13 -3 -8 5 -12 7 0
1 -10 -13 3 -2 5 0
1 10 6 2 12 5 11 -9 0
1 10 6 2 -12 0
-1 -3 -4 7 -10 -9 -12 0
-1 -3 4 8 11 -10 -12 0
-1 -3 -4 -7 12 0
1 -10 -13 -3 -8 -5 0
1 10 6 2 12 5 11 9 0
-1 3 7 5 -12 9 0
